c ind 24 25 26 27 28 29 30 31 32 33 34 35 36 37 38 39 40 41 42 43 44 45 46 47 48 49 50 51 52 53 54 55 0
p cnf 650 2078
-1 -3 0
2 -3 0
1 -2 3 0
-1 -5 0
2 -5 0
4 -5 0
1 -2 -4 5 0
-1 -7 0
2 -7 0
4 -7 0
6 -7 0
1 -2 -4 -6 7 0
-1 -9 0
2 -9 0
4 -9 0
6 -9 0
8 -9 0
1 -2 -4 -6 -8 9 0
-1 -11 0
2 -11 0
4 -11 0
6 -11 0
8 -11 0
10 -11 0
1 -2 -4 -6 -8 -10 11 0
-10 -12 0
8 -12 0
-8 10 12 0
-12 13 0
8 13 0
-8 12 -13 0
13 -14 0
6 -14 0
-6 -13 14 0
-14 15 0
6 15 0
-6 14 -15 0
15 -16 0
4 -16 0
-4 -15 16 0
-16 17 0
4 17 0
-4 16 -17 0
17 -18 0
2 -18 0
-2 -17 18 0
-18 19 0
2 19 0
-2 18 -19 0
-1 -20 0
19 -20 0
1 -19 20 0
-1 -22 0
19 -22 0
21 -22 0
1 -19 -21 22 0
-20 23 0
-1 23 0
1 20 -23 0
-26 -27 -56 0
26 -27 56 0
27 56 0
-28 56 -57 0
-28 -56 57 0
28 57 0
-29 57 -58 0
-29 -57 58 0
29 58 0
-30 58 -59 0
-30 -58 59 0
30 59 0
-31 59 -60 0
-31 -59 60 0
31 60 0
-32 60 -61 0
-32 -60 61 0
32 61 0
-33 61 -62 0
-33 -61 62 0
33 62 0
-34 62 -63 0
-34 -62 63 0
34 63 0
-35 63 -64 0
-35 -63 64 0
35 64 0
-36 64 -65 0
-36 -64 65 0
36 65 0
-37 65 -66 0
-37 -65 66 0
37 66 0
-38 66 -67 0
-38 -66 67 0
38 67 0
-39 67 -68 0
-39 -67 68 0
39 68 0
-40 68 -69 0
-40 -68 69 0
40 69 0
-41 69 -70 0
-41 -69 70 0
41 70 0
-42 70 -71 0
-42 -70 71 0
42 71 0
-43 71 -72 0
-43 -71 72 0
43 72 0
-44 72 -73 0
-44 -72 73 0
44 73 0
-45 73 -74 0
-45 -73 74 0
45 74 0
-46 74 -75 0
-46 -74 75 0
46 75 0
-47 75 -76 0
-47 -75 76 0
47 76 0
-48 76 -77 0
-48 -76 77 0
48 77 0
-49 77 -78 0
-49 -77 78 0
49 78 0
-50 78 -79 0
-50 -78 79 0
50 79 0
-51 79 -80 0
-51 -79 80 0
51 80 0
-52 80 -81 0
-52 -80 81 0
52 81 0
-53 81 -82 0
-53 -81 82 0
53 82 0
-54 82 -83 0
-54 -82 83 0
54 83 0
-55 83 -84 0
-55 -83 84 0
55 84 0
-55 -84 -85 0
55 84 -85 0
-55 84 85 0
55 -84 85 0
24 -86 0
25 -86 0
-26 -86 0
27 -86 0
28 -86 0
29 -86 0
30 -86 0
31 -86 0
32 -86 0
33 -86 0
34 -86 0
35 -86 0
36 -86 0
37 -86 0
38 -86 0
39 -86 0
40 -86 0
41 -86 0
42 -86 0
43 -86 0
44 -86 0
45 -86 0
46 -86 0
47 -86 0
48 -86 0
49 -86 0
50 -86 0
51 -86 0
52 -86 0
53 -86 0
54 -86 0
55 -86 0
-24 -25 26 -27 -28 -29 -30 -31 -32 -33 -34 -35 -36 -37 -38 -39 -40 -41 -42 -43 -44 -45 -46 -47 -48 -49 -50 -51 -52 -53 -54 -55 86 0
-85 87 0
-86 87 0
85 86 -87 0
-25 -26 -88 0
25 -26 88 0
26 88 0
-27 -89 0
27 88 -89 0
27 -88 89 0
-28 -90 0
28 89 -90 0
28 -89 90 0
-29 -91 0
29 90 -91 0
29 -90 91 0
-30 -92 0
30 91 -92 0
30 -91 92 0
-31 -93 0
31 92 -93 0
31 -92 93 0
-32 -94 0
32 93 -94 0
32 -93 94 0
-33 -95 0
33 94 -95 0
33 -94 95 0
-34 -96 0
34 95 -96 0
34 -95 96 0
-35 -97 0
35 96 -97 0
35 -96 97 0
-36 -98 0
36 97 -98 0
36 -97 98 0
-37 -99 0
37 98 -99 0
37 -98 99 0
-38 -100 0
38 99 -100 0
38 -99 100 0
-39 -101 0
39 100 -101 0
39 -100 101 0
-40 -102 0
40 101 -102 0
40 -101 102 0
-41 -103 0
41 102 -103 0
41 -102 103 0
-42 -104 0
42 103 -104 0
42 -103 104 0
-43 -105 0
43 104 -105 0
43 -104 105 0
-44 -106 0
44 105 -106 0
44 -105 106 0
-45 -107 0
45 106 -107 0
45 -106 107 0
-46 -108 0
46 107 -108 0
46 -107 108 0
-47 -109 0
47 108 -109 0
47 -108 109 0
-48 -110 0
48 109 -110 0
48 -109 110 0
-49 -111 0
49 110 -111 0
49 -110 111 0
-50 -112 0
50 111 -112 0
50 -111 112 0
-51 -113 0
51 112 -113 0
51 -112 113 0
-52 -114 0
52 113 -114 0
52 -113 114 0
-53 -115 0
53 114 -115 0
53 -114 115 0
-54 -116 0
54 115 -116 0
54 -115 116 0
-55 -117 0
55 116 -117 0
55 -116 117 0
55 -117 -118 0
-55 117 -118 0
55 117 118 0
-55 -117 118 0
24 -119 0
-25 -119 0
26 -119 0
-27 -119 0
-28 -119 0
-29 -119 0
-30 -119 0
-31 -119 0
-32 -119 0
-33 -119 0
-34 -119 0
-35 -119 0
-36 -119 0
-37 -119 0
-38 -119 0
-39 -119 0
-40 -119 0
-41 -119 0
-42 -119 0
-43 -119 0
-44 -119 0
-45 -119 0
-46 -119 0
-47 -119 0
-48 -119 0
-49 -119 0
-50 -119 0
-51 -119 0
-52 -119 0
-53 -119 0
-54 -119 0
-55 -119 0
-24 25 -26 27 28 29 30 31 32 33 34 35 36 37 38 39 40 41 42 43 44 45 46 47 48 49 50 51 52 53 54 55 119 0
-118 120 0
-119 120 0
118 119 -120 0
87 -121 0
-120 -121 0
-87 120 121 0
-1 121 -122 0
1 -121 -122 0
-1 -121 122 0
1 121 122 0
-122 0
-26 -123 0
-25 26 -123 0
25 26 123 0
-27 -124 0
27 123 -124 0
27 -123 124 0
-28 -125 0
28 124 -125 0
28 -124 125 0
-29 -126 0
29 125 -126 0
29 -125 126 0
-30 -127 0
30 126 -127 0
30 -126 127 0
-31 -128 0
31 127 -128 0
31 -127 128 0
-32 -129 0
32 128 -129 0
32 -128 129 0
-33 -130 0
33 129 -130 0
33 -129 130 0
-34 -131 0
34 130 -131 0
34 -130 131 0
-35 -132 0
35 131 -132 0
35 -131 132 0
-36 -133 0
36 132 -133 0
36 -132 133 0
-37 -134 0
37 133 -134 0
37 -133 134 0
-38 -135 0
38 134 -135 0
38 -134 135 0
-39 -136 0
39 135 -136 0
39 -135 136 0
-40 -137 0
40 136 -137 0
40 -136 137 0
-41 -138 0
41 137 -138 0
41 -137 138 0
-42 -139 0
42 138 -139 0
42 -138 139 0
-43 -140 0
43 139 -140 0
43 -139 140 0
-44 -141 0
44 140 -141 0
44 -140 141 0
-45 -142 0
45 141 -142 0
45 -141 142 0
-46 -143 0
46 142 -143 0
46 -142 143 0
-47 -144 0
47 143 -144 0
47 -143 144 0
-48 -145 0
48 144 -145 0
48 -144 145 0
-49 -146 0
49 145 -146 0
49 -145 146 0
-50 -147 0
50 146 -147 0
50 -146 147 0
-51 -148 0
51 147 -148 0
51 -147 148 0
-52 -149 0
52 148 -149 0
52 -148 149 0
-53 -150 0
53 149 -150 0
53 -149 150 0
-54 -151 0
54 150 -151 0
54 -150 151 0
-55 -152 0
55 151 -152 0
55 -151 152 0
55 -152 -153 0
-55 152 -153 0
55 152 153 0
-55 -152 153 0
24 -154 0
-25 -154 0
-26 -154 0
-27 -154 0
-28 -154 0
-29 -154 0
-30 -154 0
-31 -154 0
-32 -154 0
-33 -154 0
-34 -154 0
-35 -154 0
-36 -154 0
-37 -154 0
-38 -154 0
-39 -154 0
-40 -154 0
-41 -154 0
-42 -154 0
-43 -154 0
-44 -154 0
-45 -154 0
-46 -154 0
-47 -154 0
-48 -154 0
-49 -154 0
-50 -154 0
-51 -154 0
-52 -154 0
-53 -154 0
-54 -154 0
-55 -154 0
-24 25 26 27 28 29 30 31 32 33 34 35 36 37 38 39 40 41 42 43 44 45 46 47 48 49 50 51 52 53 54 55 154 0
-153 155 0
-154 155 0
153 154 -155 0
-2 -155 -156 0
2 155 -156 0
-2 155 156 0
2 -155 156 0
-156 0
-25 157 0
-24 157 0
24 25 -157 0
-24 -25 -158 0
24 25 -158 0
24 -25 158 0
-24 25 158 0
-26 159 0
-157 159 0
26 157 -159 0
-26 -157 -160 0
26 157 -160 0
-26 157 160 0
26 -157 160 0
-27 161 0
-159 161 0
27 159 -161 0
-27 -159 -162 0
27 159 -162 0
-27 159 162 0
27 -159 162 0
-28 163 0
-161 163 0
28 161 -163 0
-28 -161 -164 0
28 161 -164 0
-28 161 164 0
28 -161 164 0
-29 165 0
-163 165 0
29 163 -165 0
-29 -163 -166 0
29 163 -166 0
-29 163 166 0
29 -163 166 0
-30 167 0
-165 167 0
30 165 -167 0
-30 -165 -168 0
30 165 -168 0
-30 165 168 0
30 -165 168 0
-31 169 0
-167 169 0
31 167 -169 0
-31 -167 -170 0
31 167 -170 0
-31 167 170 0
31 -167 170 0
-32 171 0
-169 171 0
32 169 -171 0
-32 -169 -172 0
32 169 -172 0
-32 169 172 0
32 -169 172 0
-33 173 0
-171 173 0
33 171 -173 0
-33 -171 -174 0
33 171 -174 0
-33 171 174 0
33 -171 174 0
-34 175 0
-173 175 0
34 173 -175 0
-34 -173 -176 0
34 173 -176 0
-34 173 176 0
34 -173 176 0
-35 177 0
-175 177 0
35 175 -177 0
-35 -175 -178 0
35 175 -178 0
-35 175 178 0
35 -175 178 0
-36 179 0
-177 179 0
36 177 -179 0
-36 -177 -180 0
36 177 -180 0
-36 177 180 0
36 -177 180 0
-37 181 0
-179 181 0
37 179 -181 0
-37 -179 -182 0
37 179 -182 0
-37 179 182 0
37 -179 182 0
-38 183 0
-181 183 0
38 181 -183 0
-38 -181 -184 0
38 181 -184 0
-38 181 184 0
38 -181 184 0
-39 185 0
-183 185 0
39 183 -185 0
-39 -183 -186 0
39 183 -186 0
-39 183 186 0
39 -183 186 0
-40 187 0
-185 187 0
40 185 -187 0
-40 -185 -188 0
40 185 -188 0
-40 185 188 0
40 -185 188 0
-41 189 0
-187 189 0
41 187 -189 0
-41 -187 -190 0
41 187 -190 0
-41 187 190 0
41 -187 190 0
-42 191 0
-189 191 0
42 189 -191 0
-42 -189 -192 0
42 189 -192 0
-42 189 192 0
42 -189 192 0
-43 193 0
-191 193 0
43 191 -193 0
-43 -191 -194 0
43 191 -194 0
-43 191 194 0
43 -191 194 0
-44 195 0
-193 195 0
44 193 -195 0
-44 -193 -196 0
44 193 -196 0
-44 193 196 0
44 -193 196 0
-45 197 0
-195 197 0
45 195 -197 0
-45 -195 -198 0
45 195 -198 0
-45 195 198 0
45 -195 198 0
-46 199 0
-197 199 0
46 197 -199 0
-46 -197 -200 0
46 197 -200 0
-46 197 200 0
46 -197 200 0
-47 201 0
-199 201 0
47 199 -201 0
-47 -199 -202 0
47 199 -202 0
-47 199 202 0
47 -199 202 0
-48 203 0
-201 203 0
48 201 -203 0
-48 -201 -204 0
48 201 -204 0
-48 201 204 0
48 -201 204 0
-49 205 0
-203 205 0
49 203 -205 0
-49 -203 -206 0
49 203 -206 0
-49 203 206 0
49 -203 206 0
-50 207 0
-205 207 0
50 205 -207 0
-50 -205 -208 0
50 205 -208 0
-50 205 208 0
50 -205 208 0
-51 209 0
-207 209 0
51 207 -209 0
-51 -207 -210 0
51 207 -210 0
-51 207 210 0
51 -207 210 0
-52 211 0
-209 211 0
52 209 -211 0
-52 -209 -212 0
52 209 -212 0
-52 209 212 0
52 -209 212 0
-53 213 0
-211 213 0
53 211 -213 0
-53 -211 -214 0
53 211 -214 0
-53 211 214 0
53 -211 214 0
-54 215 0
-213 215 0
54 213 -215 0
-54 -213 -216 0
54 213 -216 0
-54 213 216 0
54 -213 216 0
-55 217 0
-215 217 0
55 215 -217 0
-55 -215 -218 0
55 215 -218 0
-55 215 218 0
55 -215 218 0
160 -219 0
158 -160 -219 0
-158 -160 219 0
162 -220 0
-162 219 -220 0
-162 -219 220 0
164 -221 0
-164 220 -221 0
-164 -220 221 0
166 -222 0
-166 221 -222 0
-166 -221 222 0
168 -223 0
-168 222 -223 0
-168 -222 223 0
170 -224 0
-170 223 -224 0
-170 -223 224 0
172 -225 0
-172 224 -225 0
-172 -224 225 0
174 -226 0
-174 225 -226 0
-174 -225 226 0
176 -227 0
-176 226 -227 0
-176 -226 227 0
178 -228 0
-178 227 -228 0
-178 -227 228 0
180 -229 0
-180 228 -229 0
-180 -228 229 0
182 -230 0
-182 229 -230 0
-182 -229 230 0
184 -231 0
-184 230 -231 0
-184 -230 231 0
186 -232 0
-186 231 -232 0
-186 -231 232 0
188 -233 0
-188 232 -233 0
-188 -232 233 0
190 -234 0
-190 233 -234 0
-190 -233 234 0
192 -235 0
-192 234 -235 0
-192 -234 235 0
194 -236 0
-194 235 -236 0
-194 -235 236 0
196 -237 0
-196 236 -237 0
-196 -236 237 0
198 -238 0
-198 237 -238 0
-198 -237 238 0
200 -239 0
-200 238 -239 0
-200 -238 239 0
202 -240 0
-202 239 -240 0
-202 -239 240 0
204 -241 0
-204 240 -241 0
-204 -240 241 0
206 -242 0
-206 241 -242 0
-206 -241 242 0
208 -243 0
-208 242 -243 0
-208 -242 243 0
210 -244 0
-210 243 -244 0
-210 -243 244 0
212 -245 0
-212 244 -245 0
-212 -244 245 0
214 -246 0
-214 245 -246 0
-214 -245 246 0
216 -247 0
-216 246 -247 0
-216 -246 247 0
218 -248 0
-218 247 -248 0
-218 -247 248 0
-218 -248 -249 0
218 248 -249 0
-218 248 249 0
218 -248 249 0
-24 -250 0
158 -250 0
160 -250 0
162 -250 0
164 -250 0
166 -250 0
168 -250 0
170 -250 0
172 -250 0
174 -250 0
176 -250 0
178 -250 0
180 -250 0
182 -250 0
184 -250 0
186 -250 0
188 -250 0
190 -250 0
192 -250 0
194 -250 0
196 -250 0
198 -250 0
200 -250 0
202 -250 0
204 -250 0
206 -250 0
208 -250 0
210 -250 0
212 -250 0
214 -250 0
216 -250 0
218 -250 0
24 -158 -160 -162 -164 -166 -168 -170 -172 -174 -176 -178 -180 -182 -184 -186 -188 -190 -192 -194 -196 -198 -200 -202 -204 -206 -208 -210 -212 -214 -216 -218 250 0
-249 251 0
-250 251 0
249 250 -251 0
-4 -251 -252 0
4 251 -252 0
-4 251 252 0
4 -251 252 0
-252 0
158 253 0
24 253 0
-24 -158 -253 0
24 158 -254 0
-24 -158 -254 0
-24 158 254 0
24 -158 254 0
160 255 0
-253 255 0
-160 253 -255 0
160 -253 -256 0
-160 253 -256 0
160 253 256 0
-160 -253 256 0
162 257 0
-255 257 0
-162 255 -257 0
162 -255 -258 0
-162 255 -258 0
162 255 258 0
-162 -255 258 0
164 259 0
-257 259 0
-164 257 -259 0
164 -257 -260 0
-164 257 -260 0
164 257 260 0
-164 -257 260 0
166 261 0
-259 261 0
-166 259 -261 0
166 -259 -262 0
-166 259 -262 0
166 259 262 0
-166 -259 262 0
168 263 0
-261 263 0
-168 261 -263 0
168 -261 -264 0
-168 261 -264 0
168 261 264 0
-168 -261 264 0
170 265 0
-263 265 0
-170 263 -265 0
170 -263 -266 0
-170 263 -266 0
170 263 266 0
-170 -263 266 0
172 267 0
-265 267 0
-172 265 -267 0
172 -265 -268 0
-172 265 -268 0
172 265 268 0
-172 -265 268 0
174 269 0
-267 269 0
-174 267 -269 0
174 -267 -270 0
-174 267 -270 0
174 267 270 0
-174 -267 270 0
176 271 0
-269 271 0
-176 269 -271 0
176 -269 -272 0
-176 269 -272 0
176 269 272 0
-176 -269 272 0
178 273 0
-271 273 0
-178 271 -273 0
178 -271 -274 0
-178 271 -274 0
178 271 274 0
-178 -271 274 0
180 275 0
-273 275 0
-180 273 -275 0
180 -273 -276 0
-180 273 -276 0
180 273 276 0
-180 -273 276 0
182 277 0
-275 277 0
-182 275 -277 0
182 -275 -278 0
-182 275 -278 0
182 275 278 0
-182 -275 278 0
184 279 0
-277 279 0
-184 277 -279 0
184 -277 -280 0
-184 277 -280 0
184 277 280 0
-184 -277 280 0
186 281 0
-279 281 0
-186 279 -281 0
186 -279 -282 0
-186 279 -282 0
186 279 282 0
-186 -279 282 0
188 283 0
-281 283 0
-188 281 -283 0
188 -281 -284 0
-188 281 -284 0
188 281 284 0
-188 -281 284 0
190 285 0
-283 285 0
-190 283 -285 0
190 -283 -286 0
-190 283 -286 0
190 283 286 0
-190 -283 286 0
192 287 0
-285 287 0
-192 285 -287 0
192 -285 -288 0
-192 285 -288 0
192 285 288 0
-192 -285 288 0
194 289 0
-287 289 0
-194 287 -289 0
194 -287 -290 0
-194 287 -290 0
194 287 290 0
-194 -287 290 0
196 291 0
-289 291 0
-196 289 -291 0
196 -289 -292 0
-196 289 -292 0
196 289 292 0
-196 -289 292 0
198 293 0
-291 293 0
-198 291 -293 0
198 -291 -294 0
-198 291 -294 0
198 291 294 0
-198 -291 294 0
200 295 0
-293 295 0
-200 293 -295 0
200 -293 -296 0
-200 293 -296 0
200 293 296 0
-200 -293 296 0
202 297 0
-295 297 0
-202 295 -297 0
202 -295 -298 0
-202 295 -298 0
202 295 298 0
-202 -295 298 0
204 299 0
-297 299 0
-204 297 -299 0
204 -297 -300 0
-204 297 -300 0
204 297 300 0
-204 -297 300 0
206 301 0
-299 301 0
-206 299 -301 0
206 -299 -302 0
-206 299 -302 0
206 299 302 0
-206 -299 302 0
208 303 0
-301 303 0
-208 301 -303 0
208 -301 -304 0
-208 301 -304 0
208 301 304 0
-208 -301 304 0
210 305 0
-303 305 0
-210 303 -305 0
210 -303 -306 0
-210 303 -306 0
210 303 306 0
-210 -303 306 0
212 307 0
-305 307 0
-212 305 -307 0
212 -305 -308 0
-212 305 -308 0
212 305 308 0
-212 -305 308 0
214 309 0
-307 309 0
-214 307 -309 0
214 -307 -310 0
-214 307 -310 0
214 307 310 0
-214 -307 310 0
216 311 0
-309 311 0
-216 309 -311 0
216 -309 -312 0
-216 309 -312 0
216 309 312 0
-216 -309 312 0
218 313 0
-311 313 0
-218 311 -313 0
218 -311 -314 0
-218 311 -314 0
218 311 314 0
-218 -311 314 0
256 -315 0
254 -256 -315 0
-254 -256 315 0
258 -316 0
-258 315 -316 0
-258 -315 316 0
260 -317 0
-260 316 -317 0
-260 -316 317 0
262 -318 0
-262 317 -318 0
-262 -317 318 0
264 -319 0
-264 318 -319 0
-264 -318 319 0
266 -320 0
-266 319 -320 0
-266 -319 320 0
268 -321 0
-268 320 -321 0
-268 -320 321 0
270 -322 0
-270 321 -322 0
-270 -321 322 0
272 -323 0
-272 322 -323 0
-272 -322 323 0
274 -324 0
-274 323 -324 0
-274 -323 324 0
276 -325 0
-276 324 -325 0
-276 -324 325 0
278 -326 0
-278 325 -326 0
-278 -325 326 0
280 -327 0
-280 326 -327 0
-280 -326 327 0
282 -328 0
-282 327 -328 0
-282 -327 328 0
284 -329 0
-284 328 -329 0
-284 -328 329 0
286 -330 0
-286 329 -330 0
-286 -329 330 0
288 -331 0
-288 330 -331 0
-288 -330 331 0
290 -332 0
-290 331 -332 0
-290 -331 332 0
292 -333 0
-292 332 -333 0
-292 -332 333 0
294 -334 0
-294 333 -334 0
-294 -333 334 0
296 -335 0
-296 334 -335 0
-296 -334 335 0
298 -336 0
-298 335 -336 0
-298 -335 336 0
300 -337 0
-300 336 -337 0
-300 -336 337 0
302 -338 0
-302 337 -338 0
-302 -337 338 0
304 -339 0
-304 338 -339 0
-304 -338 339 0
306 -340 0
-306 339 -340 0
-306 -339 340 0
308 -341 0
-308 340 -341 0
-308 -340 341 0
310 -342 0
-310 341 -342 0
-310 -341 342 0
312 -343 0
-312 342 -343 0
-312 -342 343 0
314 -344 0
-314 343 -344 0
-314 -343 344 0
-314 -344 -345 0
314 344 -345 0
-314 344 345 0
314 -344 345 0
24 -346 0
254 -346 0
256 -346 0
258 -346 0
260 -346 0
262 -346 0
264 -346 0
266 -346 0
268 -346 0
270 -346 0
272 -346 0
274 -346 0
276 -346 0
278 -346 0
280 -346 0
282 -346 0
284 -346 0
286 -346 0
288 -346 0
290 -346 0
292 -346 0
294 -346 0
296 -346 0
298 -346 0
300 -346 0
302 -346 0
304 -346 0
306 -346 0
308 -346 0
310 -346 0
312 -346 0
314 -346 0
-24 -254 -256 -258 -260 -262 -264 -266 -268 -270 -272 -274 -276 -278 -280 -282 -284 -286 -288 -290 -292 -294 -296 -298 -300 -302 -304 -306 -308 -310 -312 -314 346 0
-345 347 0
-346 347 0
345 346 -347 0
-6 -347 -348 0
6 347 -348 0
-6 347 348 0
6 -347 348 0
-348 0
254 349 0
-24 349 0
24 -254 -349 0
-24 254 -350 0
24 -254 -350 0
24 254 350 0
-24 -254 350 0
256 351 0
-349 351 0
-256 349 -351 0
256 -349 -352 0
-256 349 -352 0
256 349 352 0
-256 -349 352 0
258 353 0
-351 353 0
-258 351 -353 0
258 -351 -354 0
-258 351 -354 0
258 351 354 0
-258 -351 354 0
260 355 0
-353 355 0
-260 353 -355 0
260 -353 -356 0
-260 353 -356 0
260 353 356 0
-260 -353 356 0
262 357 0
-355 357 0
-262 355 -357 0
262 -355 -358 0
-262 355 -358 0
262 355 358 0
-262 -355 358 0
264 359 0
-357 359 0
-264 357 -359 0
264 -357 -360 0
-264 357 -360 0
264 357 360 0
-264 -357 360 0
266 361 0
-359 361 0
-266 359 -361 0
266 -359 -362 0
-266 359 -362 0
266 359 362 0
-266 -359 362 0
268 363 0
-361 363 0
-268 361 -363 0
268 -361 -364 0
-268 361 -364 0
268 361 364 0
-268 -361 364 0
270 365 0
-363 365 0
-270 363 -365 0
270 -363 -366 0
-270 363 -366 0
270 363 366 0
-270 -363 366 0
272 367 0
-365 367 0
-272 365 -367 0
272 -365 -368 0
-272 365 -368 0
272 365 368 0
-272 -365 368 0
274 369 0
-367 369 0
-274 367 -369 0
274 -367 -370 0
-274 367 -370 0
274 367 370 0
-274 -367 370 0
276 371 0
-369 371 0
-276 369 -371 0
276 -369 -372 0
-276 369 -372 0
276 369 372 0
-276 -369 372 0
278 373 0
-371 373 0
-278 371 -373 0
278 -371 -374 0
-278 371 -374 0
278 371 374 0
-278 -371 374 0
280 375 0
-373 375 0
-280 373 -375 0
280 -373 -376 0
-280 373 -376 0
280 373 376 0
-280 -373 376 0
282 377 0
-375 377 0
-282 375 -377 0
282 -375 -378 0
-282 375 -378 0
282 375 378 0
-282 -375 378 0
284 379 0
-377 379 0
-284 377 -379 0
284 -377 -380 0
-284 377 -380 0
284 377 380 0
-284 -377 380 0
286 381 0
-379 381 0
-286 379 -381 0
286 -379 -382 0
-286 379 -382 0
286 379 382 0
-286 -379 382 0
288 383 0
-381 383 0
-288 381 -383 0
288 -381 -384 0
-288 381 -384 0
288 381 384 0
-288 -381 384 0
290 385 0
-383 385 0
-290 383 -385 0
290 -383 -386 0
-290 383 -386 0
290 383 386 0
-290 -383 386 0
292 387 0
-385 387 0
-292 385 -387 0
292 -385 -388 0
-292 385 -388 0
292 385 388 0
-292 -385 388 0
294 389 0
-387 389 0
-294 387 -389 0
294 -387 -390 0
-294 387 -390 0
294 387 390 0
-294 -387 390 0
296 391 0
-389 391 0
-296 389 -391 0
296 -389 -392 0
-296 389 -392 0
296 389 392 0
-296 -389 392 0
298 393 0
-391 393 0
-298 391 -393 0
298 -391 -394 0
-298 391 -394 0
298 391 394 0
-298 -391 394 0
300 395 0
-393 395 0
-300 393 -395 0
300 -393 -396 0
-300 393 -396 0
300 393 396 0
-300 -393 396 0
302 397 0
-395 397 0
-302 395 -397 0
302 -395 -398 0
-302 395 -398 0
302 395 398 0
-302 -395 398 0
304 399 0
-397 399 0
-304 397 -399 0
304 -397 -400 0
-304 397 -400 0
304 397 400 0
-304 -397 400 0
306 401 0
-399 401 0
-306 399 -401 0
306 -399 -402 0
-306 399 -402 0
306 399 402 0
-306 -399 402 0
308 403 0
-401 403 0
-308 401 -403 0
308 -401 -404 0
-308 401 -404 0
308 401 404 0
-308 -401 404 0
310 405 0
-403 405 0
-310 403 -405 0
310 -403 -406 0
-310 403 -406 0
310 403 406 0
-310 -403 406 0
312 407 0
-405 407 0
-312 405 -407 0
312 -405 -408 0
-312 405 -408 0
312 405 408 0
-312 -405 408 0
314 409 0
-407 409 0
-314 407 -409 0
314 -407 -410 0
-314 407 -410 0
314 407 410 0
-314 -407 410 0
352 -411 0
350 -352 -411 0
-350 -352 411 0
354 -412 0
-354 411 -412 0
-354 -411 412 0
356 -413 0
-356 412 -413 0
-356 -412 413 0
358 -414 0
-358 413 -414 0
-358 -413 414 0
360 -415 0
-360 414 -415 0
-360 -414 415 0
362 -416 0
-362 415 -416 0
-362 -415 416 0
364 -417 0
-364 416 -417 0
-364 -416 417 0
366 -418 0
-366 417 -418 0
-366 -417 418 0
368 -419 0
-368 418 -419 0
-368 -418 419 0
370 -420 0
-370 419 -420 0
-370 -419 420 0
372 -421 0
-372 420 -421 0
-372 -420 421 0
374 -422 0
-374 421 -422 0
-374 -421 422 0
376 -423 0
-376 422 -423 0
-376 -422 423 0
378 -424 0
-378 423 -424 0
-378 -423 424 0
380 -425 0
-380 424 -425 0
-380 -424 425 0
382 -426 0
-382 425 -426 0
-382 -425 426 0
384 -427 0
-384 426 -427 0
-384 -426 427 0
386 -428 0
-386 427 -428 0
-386 -427 428 0
388 -429 0
-388 428 -429 0
-388 -428 429 0
390 -430 0
-390 429 -430 0
-390 -429 430 0
392 -431 0
-392 430 -431 0
-392 -430 431 0
394 -432 0
-394 431 -432 0
-394 -431 432 0
396 -433 0
-396 432 -433 0
-396 -432 433 0
398 -434 0
-398 433 -434 0
-398 -433 434 0
400 -435 0
-400 434 -435 0
-400 -434 435 0
402 -436 0
-402 435 -436 0
-402 -435 436 0
404 -437 0
-404 436 -437 0
-404 -436 437 0
406 -438 0
-406 437 -438 0
-406 -437 438 0
408 -439 0
-408 438 -439 0
-408 -438 439 0
410 -440 0
-410 439 -440 0
-410 -439 440 0
-410 -440 -441 0
410 440 -441 0
-410 440 441 0
410 -440 441 0
-24 -442 0
350 -442 0
352 -442 0
354 -442 0
356 -442 0
358 -442 0
360 -442 0
362 -442 0
364 -442 0
366 -442 0
368 -442 0
370 -442 0
372 -442 0
374 -442 0
376 -442 0
378 -442 0
380 -442 0
382 -442 0
384 -442 0
386 -442 0
388 -442 0
390 -442 0
392 -442 0
394 -442 0
396 -442 0
398 -442 0
400 -442 0
402 -442 0
404 -442 0
406 -442 0
408 -442 0
410 -442 0
24 -350 -352 -354 -356 -358 -360 -362 -364 -366 -368 -370 -372 -374 -376 -378 -380 -382 -384 -386 -388 -390 -392 -394 -396 -398 -400 -402 -404 -406 -408 -410 442 0
-441 443 0
-442 443 0
441 442 -443 0
-8 -443 -444 0
8 443 -444 0
-8 443 444 0
8 -443 444 0
-444 0
350 445 0
24 445 0
-24 -350 -445 0
24 350 -446 0
-24 -350 -446 0
-24 350 446 0
24 -350 446 0
352 447 0
-445 447 0
-352 445 -447 0
352 -445 -448 0
-352 445 -448 0
352 445 448 0
-352 -445 448 0
354 449 0
-447 449 0
-354 447 -449 0
354 -447 -450 0
-354 447 -450 0
354 447 450 0
-354 -447 450 0
356 451 0
-449 451 0
-356 449 -451 0
356 -449 -452 0
-356 449 -452 0
356 449 452 0
-356 -449 452 0
358 453 0
-451 453 0
-358 451 -453 0
358 -451 -454 0
-358 451 -454 0
358 451 454 0
-358 -451 454 0
360 455 0
-453 455 0
-360 453 -455 0
360 -453 -456 0
-360 453 -456 0
360 453 456 0
-360 -453 456 0
362 457 0
-455 457 0
-362 455 -457 0
362 -455 -458 0
-362 455 -458 0
362 455 458 0
-362 -455 458 0
364 459 0
-457 459 0
-364 457 -459 0
364 -457 -460 0
-364 457 -460 0
364 457 460 0
-364 -457 460 0
366 461 0
-459 461 0
-366 459 -461 0
366 -459 -462 0
-366 459 -462 0
366 459 462 0
-366 -459 462 0
368 463 0
-461 463 0
-368 461 -463 0
368 -461 -464 0
-368 461 -464 0
368 461 464 0
-368 -461 464 0
370 465 0
-463 465 0
-370 463 -465 0
370 -463 -466 0
-370 463 -466 0
370 463 466 0
-370 -463 466 0
372 467 0
-465 467 0
-372 465 -467 0
372 -465 -468 0
-372 465 -468 0
372 465 468 0
-372 -465 468 0
374 469 0
-467 469 0
-374 467 -469 0
374 -467 -470 0
-374 467 -470 0
374 467 470 0
-374 -467 470 0
376 471 0
-469 471 0
-376 469 -471 0
376 -469 -472 0
-376 469 -472 0
376 469 472 0
-376 -469 472 0
378 473 0
-471 473 0
-378 471 -473 0
378 -471 -474 0
-378 471 -474 0
378 471 474 0
-378 -471 474 0
380 475 0
-473 475 0
-380 473 -475 0
380 -473 -476 0
-380 473 -476 0
380 473 476 0
-380 -473 476 0
382 477 0
-475 477 0
-382 475 -477 0
382 -475 -478 0
-382 475 -478 0
382 475 478 0
-382 -475 478 0
384 479 0
-477 479 0
-384 477 -479 0
384 -477 -480 0
-384 477 -480 0
384 477 480 0
-384 -477 480 0
386 481 0
-479 481 0
-386 479 -481 0
386 -479 -482 0
-386 479 -482 0
386 479 482 0
-386 -479 482 0
388 483 0
-481 483 0
-388 481 -483 0
388 -481 -484 0
-388 481 -484 0
388 481 484 0
-388 -481 484 0
390 485 0
-483 485 0
-390 483 -485 0
390 -483 -486 0
-390 483 -486 0
390 483 486 0
-390 -483 486 0
392 487 0
-485 487 0
-392 485 -487 0
392 -485 -488 0
-392 485 -488 0
392 485 488 0
-392 -485 488 0
394 489 0
-487 489 0
-394 487 -489 0
394 -487 -490 0
-394 487 -490 0
394 487 490 0
-394 -487 490 0
396 491 0
-489 491 0
-396 489 -491 0
396 -489 -492 0
-396 489 -492 0
396 489 492 0
-396 -489 492 0
398 493 0
-491 493 0
-398 491 -493 0
398 -491 -494 0
-398 491 -494 0
398 491 494 0
-398 -491 494 0
400 495 0
-493 495 0
-400 493 -495 0
400 -493 -496 0
-400 493 -496 0
400 493 496 0
-400 -493 496 0
402 497 0
-495 497 0
-402 495 -497 0
402 -495 -498 0
-402 495 -498 0
402 495 498 0
-402 -495 498 0
404 499 0
-497 499 0
-404 497 -499 0
404 -497 -500 0
-404 497 -500 0
404 497 500 0
-404 -497 500 0
406 501 0
-499 501 0
-406 499 -501 0
406 -499 -502 0
-406 499 -502 0
406 499 502 0
-406 -499 502 0
408 503 0
-501 503 0
-408 501 -503 0
408 -501 -504 0
-408 501 -504 0
408 501 504 0
-408 -501 504 0
410 505 0
-503 505 0
-410 503 -505 0
410 -503 -506 0
-410 503 -506 0
410 503 506 0
-410 -503 506 0
448 -507 0
446 -448 -507 0
-446 -448 507 0
450 -508 0
-450 507 -508 0
-450 -507 508 0
452 -509 0
-452 508 -509 0
-452 -508 509 0
454 -510 0
-454 509 -510 0
-454 -509 510 0
456 -511 0
-456 510 -511 0
-456 -510 511 0
458 -512 0
-458 511 -512 0
-458 -511 512 0
460 -513 0
-460 512 -513 0
-460 -512 513 0
462 -514 0
-462 513 -514 0
-462 -513 514 0
464 -515 0
-464 514 -515 0
-464 -514 515 0
466 -516 0
-466 515 -516 0
-466 -515 516 0
468 -517 0
-468 516 -517 0
-468 -516 517 0
470 -518 0
-470 517 -518 0
-470 -517 518 0
472 -519 0
-472 518 -519 0
-472 -518 519 0
474 -520 0
-474 519 -520 0
-474 -519 520 0
476 -521 0
-476 520 -521 0
-476 -520 521 0
478 -522 0
-478 521 -522 0
-478 -521 522 0
480 -523 0
-480 522 -523 0
-480 -522 523 0
482 -524 0
-482 523 -524 0
-482 -523 524 0
484 -525 0
-484 524 -525 0
-484 -524 525 0
486 -526 0
-486 525 -526 0
-486 -525 526 0
488 -527 0
-488 526 -527 0
-488 -526 527 0
490 -528 0
-490 527 -528 0
-490 -527 528 0
492 -529 0
-492 528 -529 0
-492 -528 529 0
494 -530 0
-494 529 -530 0
-494 -529 530 0
496 -531 0
-496 530 -531 0
-496 -530 531 0
498 -532 0
-498 531 -532 0
-498 -531 532 0
500 -533 0
-500 532 -533 0
-500 -532 533 0
502 -534 0
-502 533 -534 0
-502 -533 534 0
504 -535 0
-504 534 -535 0
-504 -534 535 0
506 -536 0
-506 535 -536 0
-506 -535 536 0
-506 -536 -537 0
506 536 -537 0
-506 536 537 0
506 -536 537 0
24 -538 0
446 -538 0
448 -538 0
450 -538 0
452 -538 0
454 -538 0
456 -538 0
458 -538 0
460 -538 0
462 -538 0
464 -538 0
466 -538 0
468 -538 0
470 -538 0
472 -538 0
474 -538 0
476 -538 0
478 -538 0
480 -538 0
482 -538 0
484 -538 0
486 -538 0
488 -538 0
490 -538 0
492 -538 0
494 -538 0
496 -538 0
498 -538 0
500 -538 0
502 -538 0
504 -538 0
506 -538 0
-24 -446 -448 -450 -452 -454 -456 -458 -460 -462 -464 -466 -468 -470 -472 -474 -476 -478 -480 -482 -484 -486 -488 -490 -492 -494 -496 -498 -500 -502 -504 -506 538 0
-537 539 0
-538 539 0
537 538 -539 0
-10 -539 -540 0
10 539 -540 0
-10 539 540 0
10 -539 540 0
-540 0
6 -541 0
-8 -541 0
-6 8 541 0
6 542 0
8 542 0
-6 -8 -542 0
6 -543 0
8 -543 0
-6 -8 543 0
4 544 0
-541 544 0
-4 541 -544 0
4 -545 0
542 -545 0
-4 -542 545 0
4 -546 0
543 -546 0
-4 -543 546 0
2 -547 0
544 -547 0
-2 -544 547 0
2 -548 0
545 -548 0
-2 -545 548 0
2 -549 0
546 -549 0
-2 -546 549 0
-24 -547 -550 0
24 547 -550 0
24 -547 550 0
-24 547 550 0
-25 -548 -551 0
25 548 -551 0
25 -548 551 0
-25 548 551 0
-26 -549 -552 0
26 549 -552 0
26 -549 552 0
-26 549 552 0
-550 -553 0
-551 -553 0
-552 -553 0
-27 -553 0
-28 -553 0
-29 -553 0
-30 -553 0
-31 -553 0
-32 -553 0
-33 -553 0
-34 -553 0
-35 -553 0
-36 -553 0
-37 -553 0
-38 -553 0
-39 -553 0
-40 -553 0
-41 -553 0
-42 -553 0
-43 -553 0
-44 -553 0
-45 -553 0
-46 -553 0
-47 -553 0
-48 -553 0
-49 -553 0
-50 -553 0
-51 -553 0
-52 -553 0
-53 -553 0
-54 -553 0
-55 -553 0
27 28 29 30 31 32 33 34 35 36 37 38 39 40 41 42 43 44 45 46 47 48 49 50 51 52 53 54 55 550 551 552 553 0
-21 553 -554 0
21 -553 -554 0
-21 -553 554 0
21 553 554 0
-554 0
-1 0
2 0
4 0
6 0
8 0
10 0
24 -555 0
-24 555 0
25 -556 0
-25 556 0
26 -557 0
-26 557 0
27 -558 0
-27 558 0
28 -559 0
-28 559 0
29 -560 0
-29 560 0
30 -561 0
-30 561 0
31 -562 0
-31 562 0
32 -563 0
-32 563 0
33 -564 0
-33 564 0
34 -565 0
-34 565 0
35 -566 0
-35 566 0
36 -567 0
-36 567 0
37 -568 0
-37 568 0
38 -569 0
-38 569 0
39 -570 0
-39 570 0
40 -571 0
-40 571 0
41 -572 0
-41 572 0
42 -573 0
-42 573 0
43 -574 0
-43 574 0
44 -575 0
-44 575 0
45 -576 0
-45 576 0
46 -577 0
-46 577 0
47 -578 0
-47 578 0
48 -579 0
-48 579 0
49 -580 0
-49 580 0
50 -581 0
-50 581 0
51 -582 0
-51 582 0
52 -583 0
-52 583 0
53 -584 0
-53 584 0
54 -585 0
-54 585 0
55 -586 0
-55 586 0
24 -587 0
-24 587 0
25 -588 0
-25 588 0
26 -589 0
-26 589 0
27 -590 0
-27 590 0
28 -591 0
-28 591 0
29 -592 0
-29 592 0
30 -593 0
-30 593 0
31 -594 0
-31 594 0
32 -595 0
-32 595 0
33 -596 0
-33 596 0
34 -597 0
-34 597 0
35 -598 0
-35 598 0
36 -599 0
-36 599 0
37 -600 0
-37 600 0
38 -601 0
-38 601 0
39 -602 0
-39 602 0
40 -603 0
-40 603 0
41 -604 0
-41 604 0
42 -605 0
-42 605 0
43 -606 0
-43 606 0
44 -607 0
-44 607 0
45 -608 0
-45 608 0
46 -609 0
-46 609 0
47 -610 0
-47 610 0
48 -611 0
-48 611 0
49 -612 0
-49 612 0
50 -613 0
-50 613 0
51 -614 0
-51 614 0
52 -615 0
-52 615 0
53 -616 0
-53 616 0
54 -617 0
-54 617 0
55 -618 0
-55 618 0
c goto_symex::\guard#1 1
c goto_symex::\guard#2 2
c goto_symex::\guard#3 4
c goto_symex::\guard#4 6
c goto_symex::\guard#5 8
c goto_symex::\guard#6 10
c goto_symex::\guard#7 21
c symex::io::1 619 620 621 622 623 624 625 626 627 628 629 630 631 632 633 634 635 636 637 638 639 640 641 642 643 644 645 646 647 648 649 650
c testfun::1::x!0@1#4 24 -254 -256 -258 -260 -262 -264 -266 -268 -270 -272 -274 -276 -278 -280 -282 -284 -286 -288 -290 -292 -294 -296 -298 -300 -302 -304 -306 -308 -310 -312 -314
c return'!0#1 619 620 621 622 623 624 625 626 627 628 629 630 631 632 633 634 635 636 637 638 639 640 641 642 643 644 645 646 647 648 649 650
c __CPROVER__start::n!0#2 24 25 26 27 28 29 30 31 32 33 34 35 36 37 38 39 40 41 42 43 44 45 46 47 48 49 50 51 52 53 54 55
c testfun::1::y!0@1#9 -8 -8 8 FALSE FALSE FALSE FALSE FALSE FALSE FALSE FALSE FALSE FALSE FALSE FALSE FALSE FALSE FALSE FALSE FALSE FALSE FALSE FALSE FALSE FALSE FALSE FALSE FALSE FALSE FALSE FALSE FALSE
c testfun::n!0@1#1 24 25 26 27 28 29 30 31 32 33 34 35 36 37 38 39 40 41 42 43 44 45 46 47 48 49 50 51 52 53 54 55
c testfun::1::x!0@1#3 -24 -158 -160 -162 -164 -166 -168 -170 -172 -174 -176 -178 -180 -182 -184 -186 -188 -190 -192 -194 -196 -198 -200 -202 -204 -206 -208 -210 -212 -214 -216 -218
c symex::nondet0 24 25 26 27 28 29 30 31 32 33 34 35 36 37 38 39 40 41 42 43 44 45 46 47 48 49 50 51 52 53 54 55
c testfun::1::x!0@1#5 -24 -350 -352 -354 -356 -358 -360 -362 -364 -366 -368 -370 -372 -374 -376 -378 -380 -382 -384 -386 -388 -390 -392 -394 -396 -398 -400 -402 -404 -406 -408 -410
c testfun::1::y!0@1#10 541 542 543 FALSE FALSE FALSE FALSE FALSE FALSE FALSE FALSE FALSE FALSE FALSE FALSE FALSE FALSE FALSE FALSE FALSE FALSE FALSE FALSE FALSE FALSE FALSE FALSE FALSE FALSE FALSE FALSE FALSE
c symex::io::0 587 588 589 590 591 592 593 594 595 596 597 598 599 600 601 602 603 604 605 606 607 608 609 610 611 612 613 614 615 616 617 618
c testfun::1::x!0@1#6 24 -446 -448 -450 -452 -454 -456 -458 -460 -462 -464 -466 -468 -470 -472 -474 -476 -478 -480 -482 -484 -486 -488 -490 -492 -494 -496 -498 -500 -502 -504 -506
c testfun::1::y!0@1#11 544 545 546 FALSE FALSE FALSE FALSE FALSE FALSE FALSE FALSE FALSE FALSE FALSE FALSE FALSE FALSE FALSE FALSE FALSE FALSE FALSE FALSE FALSE FALSE FALSE FALSE FALSE FALSE FALSE FALSE FALSE
c testfun::1::x!0@1#2 24 25 26 27 28 29 30 31 32 33 34 35 36 37 38 39 40 41 42 43 44 45 46 47 48 49 50 51 52 53 54 55
c testfun::1::y!0@1#12 547 548 549 FALSE FALSE FALSE FALSE FALSE FALSE FALSE FALSE FALSE FALSE FALSE FALSE FALSE FALSE FALSE FALSE FALSE FALSE FALSE FALSE FALSE FALSE FALSE FALSE FALSE FALSE FALSE FALSE FALSE
c symex::args::0 555 556 557 558 559 560 561 562 563 564 565 566 567 568 569 570 571 572 573 574 575 576 577 578 579 580 581 582 583 584 585 586

